Traveling Salesman Problem/TSP_generados/Aleatorio1621103235_5.tsp
NAME: Aleatorio1621103235_5.tsp
COMMENT: Randomly generated scenario
TYPE: TSP
DIMENSION: 5
EDGE_WEIGHT_TYPE: ATT
NODE_COORD_SECTION
1 17.72 22.19
2 19.21 35.79
3 8.81 44.77
4 44.46 24.38
5 11.82 46.72
