Traveling Salesman Problem/TSP_generados/Aleatorio1621103235_5.opt.tour
NAME: Aleatorio1621103235_5.opt.tour
COMMENT: Optimal solution for Aleatorio1621103235_5 (95.5924731266838)
TYPE: TOUR
DIMENSION: 5
TOUR_SECTION
1 4 2 5 3
-1
EOF
